5019
73	48	16	35	61	20	74	25	92	27	77	19	29	10	58	69	55	43	65	65	68	64	95	21	71	24	12	61	46	46	67	78	36	67	42	85	84	26	62	59	55	87	27	32	12	94	65	48	64	55	65	55	73	53	100	22	11	11	7	41	45	37	77	63	78	94	98	20	14	70	10	53	54	87	49	40	68	75	53	35	15	59	27	5	76	25	45	69	36	74	40	69	71	45	2	34	43	28	20	83	
123	98	66	85	111	70	124	75	142	77	127	69	79	60	108	119	105	93	115	115	118	114	145	71	121	74	62	111	96	96	117	128	86	117	92	135	134	76	112	109	105	137	77	82	62	144	115	98	114	105	115	105	123	103	150	72	61	61	57	91	95	87	127	113	128	144	148	70	64	120	60	103	104	137	99	90	118	125	103	85	65	109	77	55	126	75	95	119	86	124	90	119	121	95	52	84	93	78	70	133	